Maximize

x_0_0 + x_0_1 + x_0_2 + x_1_0 + x_1_1 + x_1_2 + x_2_0 + x_2_1 + x_2_2 + x_3_0 + x_3_1 + x_3_2 + x_4_0 + x_4_1 + x_4_2 + x_5_0 + x_5_1 + x_5_2


Subject To

a0: x_0_0 + x_0_1 + x_0_2 <= 1
a1: x_1_0 + x_1_1 + x_1_2 <= 1
a2: x_2_0 + x_2_1 + x_2_2 <= 1
a3: x_3_0 + x_3_1 + x_3_2 <= 1
a4: x_4_0 + x_4_1 + x_4_2 <= 1
a5: x_5_0 + x_5_1 + x_5_2 <= 1
b0: 4 x_0_0 + 2 x_1_0 + 3 x_2_0 + 1 x_3_0 + 6 x_4_0 + 2 x_5_0 <= 3
b1: 4 x_0_1 + 2 x_1_1 + 3 x_2_1 + 1 x_3_1 + 6 x_4_1 + 2 x_5_1 <= 4
b2: 4 x_0_2 + 2 x_1_2 + 3 x_2_2 + 1 x_3_2 + 6 x_4_2 + 2 x_5_2 <= 5
c0: 0 x_0_0 + x_0_0 < 1
c1: 1 x_0_0 + x_1_0 < 1
c2: 0 x_0_0 + x_2_0 < 1
c3: 1 x_0_0 + x_3_0 < 1
c4: 1 x_0_0 + x_4_0 < 1
c5: 0 x_0_0 + x_5_0 < 1
c6: 0 x_0_1 + x_0_1 < 1
c7: 1 x_0_1 + x_1_1 < 1
c8: 0 x_0_1 + x_2_1 < 1
c9: 1 x_0_1 + x_3_1 < 1
c10: 1 x_0_1 + x_4_1 < 1
c11: 0 x_0_1 + x_5_1 < 1
c12: 0 x_0_2 + x_0_2 < 1
c13: 1 x_0_2 + x_1_2 < 1
c14: 0 x_0_2 + x_2_2 < 1
c15: 1 x_0_2 + x_3_2 < 1
c16: 1 x_0_2 + x_4_2 < 1
c17: 0 x_0_2 + x_5_2 < 1
c18: 1 x_1_0 + x_0_0 < 1
c19: 0 x_1_0 + x_1_0 < 1
c20: 0 x_1_0 + x_2_0 < 1
c21: 1 x_1_0 + x_3_0 < 1
c22: 0 x_1_0 + x_4_0 < 1
c23: 1 x_1_0 + x_5_0 < 1
c24: 1 x_1_1 + x_0_1 < 1
c25: 0 x_1_1 + x_1_1 < 1
c26: 0 x_1_1 + x_2_1 < 1
c27: 1 x_1_1 + x_3_1 < 1
c28: 0 x_1_1 + x_4_1 < 1
c29: 1 x_1_1 + x_5_1 < 1
c30: 1 x_1_2 + x_0_2 < 1
c31: 0 x_1_2 + x_1_2 < 1
c32: 0 x_1_2 + x_2_2 < 1
c33: 1 x_1_2 + x_3_2 < 1
c34: 0 x_1_2 + x_4_2 < 1
c35: 1 x_1_2 + x_5_2 < 1
c36: 0 x_2_0 + x_0_0 < 1
c37: 0 x_2_0 + x_1_0 < 1
c38: 0 x_2_0 + x_2_0 < 1
c39: 1 x_2_0 + x_3_0 < 1
c40: 0 x_2_0 + x_4_0 < 1
c41: 1 x_2_0 + x_5_0 < 1
c42: 0 x_2_1 + x_0_1 < 1
c43: 0 x_2_1 + x_1_1 < 1
c44: 0 x_2_1 + x_2_1 < 1
c45: 1 x_2_1 + x_3_1 < 1
c46: 0 x_2_1 + x_4_1 < 1
c47: 1 x_2_1 + x_5_1 < 1
c48: 0 x_2_2 + x_0_2 < 1
c49: 0 x_2_2 + x_1_2 < 1
c50: 0 x_2_2 + x_2_2 < 1
c51: 1 x_2_2 + x_3_2 < 1
c52: 0 x_2_2 + x_4_2 < 1
c53: 1 x_2_2 + x_5_2 < 1
c54: 1 x_3_0 + x_0_0 < 1
c55: 1 x_3_0 + x_1_0 < 1
c56: 1 x_3_0 + x_2_0 < 1
c57: 0 x_3_0 + x_3_0 < 1
c58: 1 x_3_0 + x_4_0 < 1
c59: 0 x_3_0 + x_5_0 < 1
c60: 1 x_3_1 + x_0_1 < 1
c61: 1 x_3_1 + x_1_1 < 1
c62: 1 x_3_1 + x_2_1 < 1
c63: 0 x_3_1 + x_3_1 < 1
c64: 1 x_3_1 + x_4_1 < 1
c65: 0 x_3_1 + x_5_1 < 1
c66: 1 x_3_2 + x_0_2 < 1
c67: 1 x_3_2 + x_1_2 < 1
c68: 1 x_3_2 + x_2_2 < 1
c69: 0 x_3_2 + x_3_2 < 1
c70: 1 x_3_2 + x_4_2 < 1
c71: 0 x_3_2 + x_5_2 < 1
c72: 1 x_4_0 + x_0_0 < 1
c73: 0 x_4_0 + x_1_0 < 1
c74: 0 x_4_0 + x_2_0 < 1
c75: 1 x_4_0 + x_3_0 < 1
c76: 0 x_4_0 + x_4_0 < 1
c77: 1 x_4_0 + x_5_0 < 1
c78: 1 x_4_1 + x_0_1 < 1
c79: 0 x_4_1 + x_1_1 < 1
c80: 0 x_4_1 + x_2_1 < 1
c81: 1 x_4_1 + x_3_1 < 1
c82: 0 x_4_1 + x_4_1 < 1
c83: 1 x_4_1 + x_5_1 < 1
c84: 1 x_4_2 + x_0_2 < 1
c85: 0 x_4_2 + x_1_2 < 1
c86: 0 x_4_2 + x_2_2 < 1
c87: 1 x_4_2 + x_3_2 < 1
c88: 0 x_4_2 + x_4_2 < 1
c89: 1 x_4_2 + x_5_2 < 1
c90: 0 x_5_0 + x_0_0 < 1
c91: 1 x_5_0 + x_1_0 < 1
c92: 1 x_5_0 + x_2_0 < 1
c93: 0 x_5_0 + x_3_0 < 1
c94: 1 x_5_0 + x_4_0 < 1
c95: 0 x_5_0 + x_5_0 < 1
c96: 0 x_5_1 + x_0_1 < 1
c97: 1 x_5_1 + x_1_1 < 1
c98: 1 x_5_1 + x_2_1 < 1
c99: 0 x_5_1 + x_3_1 < 1
c100: 1 x_5_1 + x_4_1 < 1
c101: 0 x_5_1 + x_5_1 < 1
c102: 0 x_5_2 + x_0_2 < 1
c103: 1 x_5_2 + x_1_2 < 1
c104: 1 x_5_2 + x_2_2 < 1
c105: 0 x_5_2 + x_3_2 < 1
c106: 1 x_5_2 + x_4_2 < 1
c107: 0 x_5_2 + x_5_2 < 1



Bounds


x_0_0 <= 1
x_0_1 <= 1
x_0_2 <= 1
x_1_0 <= 1
x_1_1 <= 1
x_1_2 <= 1
x_2_0 <= 1
x_2_1 <= 1
x_2_2 <= 1
x_3_0 <= 1
x_3_1 <= 1
x_3_2 <= 1
x_4_0 <= 1
x_4_1 <= 1
x_4_2 <= 1
x_5_0 <= 1
x_5_1 <= 1
x_5_2 <= 1



Binary

x_0_0 x_0_1 x_0_2 x_1_0 x_1_1 x_1_2 x_2_0 x_2_1 x_2_2 x_3_0 x_3_1 x_3_2 x_4_0 x_4_1 x_4_2 x_5_0 x_5_1 x_5_2 x_0_0 x_0_1 x_0_2 x_1_0 x_1_1 x_1_2 x_2_0 x_2_1 x_2_2 x_3_0 x_3_1 x_3_2 x_4_0 x_4_1 x_4_2 x_5_0 x_5_1 x_5_2

 


End
